c description: Random 3-CNF over 16 variables and 48 clauses
p cnf 16 48
-2 6 10 0
4 9 -12 0
5 6 11 0
-2 -4 16 0
2 -10 16 0
-5 14 16 0
-2 6 -15 0
-1 6 7 0
3 7 -12 0
-5 -10 -12 0
-5 -13 14 0
-11 -12 -14 0
-4 -14 15 0
2 5 -10 0
-1 3 11 0
11 12 14 0
-3 9 -16 0
-10 14 -16 0
1 -4 7 0
-5 -9 10 0
-1 -10 -13 0
-1 2 14 0
-4 -13 -16 0
7 11 -13 0
4 -9 -15 0
-3 -12 14 0
-2 -3 -5 0
8 10 -14 0
3 4 6 0
-4 -6 14 0
7 -10 15 0
9 13 16 0
-2 11 -14 0
3 10 -15 0
5 -9 15 0
11 -12 15 0
7 13 -15 0
5 -11 16 0
-7 -14 15 0
-1 4 16 0
-11 -14 15 0
2 8 14 0
-3 10 11 0
3 -5 -14 0
-3 6 -7 0
-1 5 6 0
8 -10 14 0
4 -6 10 0